(set-logic QF_S)
(declare-fun A () String)
(assert (= (str.++  "ccdaebccdbecaddccaacdbdbdaeccbccddcabdacedbabcebb" "")  (str.++  "ccdaebcc" A "abcebb") ))
(assert (= (str.++  "acceaabaec" A "cdbbebccbccdecadeeebbebebcddb")  (str.++  "acceaabaececacebadebcdbbebccbccdecadeeebbebebcddb" "") ))
(assert (= (str.++  "cdbbadcddcddbbddadbcbbabbeddcadbeabdacdbececdcdcc" "")  (str.++  "cdbbadcddcddbbddadbcbb" A "dcdcc") ))
(assert (= (str.++  "ddedbaaba" A "deeeedcdbabdeba")  (str.++  "ddedbaabacaaaeadceedbddddabbeebceadeeeedcdbabdeba" "") ))
(assert (= (str.++  "eccbbddacdcebbdddacceeecddbbdcccacaaaebdeaeedcbda" "")  (str.++  "eccbbddacdcebbdddacceeec" A "aebdeaeedcbda") ))
(assert (= (str.++  "bebabdaaa" A "adbcecbadeccdadeeeaabddaccacedbdaad")  (str.++  "bebabdaaa" A "adbcecbadeccdadeeeaabddaccacedbdaad") ))
(assert (= (str.++  "eabebdabccebaaeedbbebcbdccabbbaca" A "dddbcbbaabc")  (str.++  "eabebdabccebaaeedbbebcbdccabbbacaeeaeadddbcbbaabc" "") ))
(assert (= (str.++  "ececbdceeceaeacbeebccdaac" A "acccddebadcaaaaeceb")  (str.++  "ececbdceeceaeacbeebccdaac" A "acccddebadcaaaaeceb") ))
(assert (= (str.++  "eecdeeccabcaeceddcbcbcdeeeaeaaaeacaeeceadeaddecbc" "")  (str.++  "eecdeeccabcaeceddcbcbcde" A "aaeacaeeceadeaddecbc") ))
(assert (= (str.++  "abacccd" A "aaebaddcddadacbdddbbeaecdedcdcdcdedca")  (str.++  "abacccdeeaeaaaebaddcddadacbdddbbeaecdedcdcdcdedca" "") ))
(assert (= (str.++  "adccedbccadbeaeeaeabbceadeecdbbdedbaccabbeaddcbcd" "")  (str.++  "adccedbccadbea" A "bbceadeecdbbdedbaccabbeaddcbcd") ))
(assert (= (str.++  "caebcbcdaaeceecbeceedadeeccacecd" A "edbccbaddedc")  (str.++  "caebcbcdaaeceecbeceedadeeccacecdeeaeaedbccbaddedc" "") ))
(assert (= (str.++  "eedbcbdccdedaeabbcdecbdbbacceaeeaeadbaaabdacbacdc" "")  (str.++  "eedbcbdccdedaeabbcdecbdbbaccea" A "dbaaabdacbacdc") ))
(assert (= (str.++  "aadcdedcedbddeeaeaecccdadddcacedeaaddeaecbbedcbbd" "")  (str.++  "aadcdedcedbdd" A "ecccdadddcacedeaaddeaecbbedcbbd") ))
(assert (= (str.++  "ecdbaddaccaeddcccdbcdded" A "daedabcdbdecaaadeacc")  (str.++  "ecdbaddaccaeddcccdbcdded" A "daedabcdbdecaaadeacc") ))
(assert (= (str.++  "baedccdbcdbcbeccacbddbcdcbbcdbbccabbdeeda" A "ddb")  (str.++  "baedccdbcdbcbeccacbddbcdcbbcdbbccabbdeeda" A "ddb") ))
(assert (= (str.++  "eccbabaad" A "cbc")  (str.++  "eccbabaadcbcaaccceacbabbcdcceeeeaaaddbceaeabaacbc" "") ))
(assert (= (str.++  "cbadbcbbeaabeccbbbceccad" A "eb")  (str.++  "cbadbcbbeaabeccbbbceccad" A "eb") ))
(assert (= (str.++  "cbdceaabcabc" A "ccdedceadcbcbeeeacabbeaddacdaa")  (str.++  "cbdceaabcabc" A "ccdedceadcbcbeeeacabbeaddacdaa") ))
(assert (= (str.++  "caaacaabdeccacaebcbddccb" A "dcccdadbbceededaca")  (str.++  "caaacaabdeccacaebcbddccbdaebacbdcccdadbbceededaca" "") ))
(assert (= (str.++  "eaadabdaeadceeaddbeebccecddecaabdbaadcaaacadcebee" "")  (str.++  "eaadabdaeadcee" A "dcaaacadcebee") ))
(assert (= (str.++  "dacdbbeb" A "beddbaeeeeeabccbeebaddbbccdb")  (str.++  "dacdbbebbbcaaaeadadccbeddbaeeeeeabccbeebaddbbccdb" "") ))
(assert (= (str.++  "edbacacdcdcbaedeedabec" A "aceedeeeeabbdaecdcaacdc")  (str.++  "edbacacdcdcbaedeedabec" A "aceedeeeeabbdaecdcaacdc") ))
(assert (= (str.++  "dacaacad" A "cbaeacbdebacecbcedadadcceeacceaecbeed")  (str.++  "dacaacadbdbbcbaeacbdebacecbcedadadcceeacceaecbeed" "") ))
(assert (= (str.++  "cddaebecebdbbddcecacbbebcdaccbeebdeddaeadceabeeca" "")  (str.++  "cddaebece" A "ddcecacbbebcdaccbeebdeddaeadceabeeca") ))
(assert (= (str.++  "cdbddcecbaacdcedaecccecbc" A "cbaabebbbdbdcdbcdaeb")  (str.++  "cdbddcecbaacdcedaecccecbc" A "cbaabebbbdbdcdbcdaeb") ))
(assert (= (str.++  "adecc" A "edbbbbecbdbeabbedecbcbddbbedcdcbddddbdce")  (str.++  "adecc" A "edbbbbecbdbeabbedecbcbddbbedcdcbddddbdce") ))
(assert (= (str.++  "daeebbadaadbbdbeddceebbacdbebddbdbebdcaedca" A "bb")  (str.++  "daeebbadaadbbdbeddceebbacdbebddbdbebdcaedcabdbbbb" "") ))
(assert (= (str.++  "cbdaaccababdbaabdeabcabaecddcdebbccaaed" A "eeeebd")  (str.++  "cbdaaccababdbaabdeabcabaecddcdebbccaaed" A "eeeebd") ))
(assert (= (str.++  "ebcdbcbcacdcabcbabcaadcaacbacadcba" A "dadaddeecaa")  (str.++  "ebcdbcbcacdcabcbabcaadcaacbacadcbabdbbdadaddeecaa" "") ))
(assert (= (str.++  "eeabaecacddddeeaddedcbbeedabaccecde" A "ecbdcbedeb")  (str.++  "eeabaecacddddeeaddedcbbeedabaccecdebdbbecbdcbedeb" "") ))
(assert (= (str.++  "eccadeadeaabaeceaaecdaddbdbbedcdcdbaabccbbdeababb" "")  (str.++  "eccadeadeaabaeceaaecdadd" A "edcdcdbaabccbbdeababb") ))
(assert (= (str.++  "ecbcbaecdddddabbcdaeecaadacebdbbdbadaebbddeaaadbe" "")  (str.++  "ecbcbaecdddddabbcdaeecaadace" A "dbadaebbddeaaadbe") ))
(assert (= (str.++  "cbdaddcdedddcbabbdbbaeebdbabcabdcbbabaebcaddaedba" "")  (str.++  "cbdaddcdedddcbab" A "aeebdbabcabdcbbabaebcaddaedba") ))
(assert (= (str.++  "bbddbcbedbbcebdaeacabecacdeeaaebccaecdabeadbdbbaa" "")  (str.++  "bbddbcbedbbcebdaeacabecacdeeaaebccaecdabead" A "aa") ))
(assert (= (str.++  "ecaaeabdbedde" A "cdaeabbbabadeaeaedcabaabeeabddce")  (str.++  "ecaaeabdbedde" A "cdaeabbbabadeaeaedcabaabeeabddce") ))
(assert (= (str.++  "ececcbeeddcecbbbbdbbbeebcbccdeacdceecaadddcbbdeae" "")  (str.++  "ececcbeeddcecbbb" A "beebcbccdeacdceecaadddcbbdeae") ))
(assert (= (str.++  "edacacdcbdaadcddcdabcbbcdbcbaccdaeadccaabdbbdbdcd" "")  (str.++  "edacacdcbdaadcddcdabcbbcdbcbaccdaeadccaa" A "dbdcd") ))
(assert (= (str.++  "bebbdceceaabbddaacbecbbee" A "aabeeddcacdcebcabddd")  (str.++  "bebbdceceaabbddaacbecbbee" A "aabeeddcacdcebcabddd") ))
(assert (= (str.++  "bdecec" A "eeccadbbeddcedaccdaeedbbdaebbbccecebcaa")  (str.++  "bdecec" A "eeccadbbeddcedaccdaeedbbdaebbbccecebcaa") ))
(assert (= (str.++  "ecdcbdbbabcdedebdcdacdeecbdacecccabcacdadaedaecad" "")  (str.++  "ecdc" A "abcdedebdcdacdeecbdacecccabcacdadaedaecad") ))
(assert (= (str.++  "adadebbe" A "eccbdacbaddccebeeedeabdcbedadcaabdcac")  (str.++  "adadebbe" A "eccbdacbaddccebeeedeabdcbedadcaabdcac") ))
(assert (= (str.++  "abdaaedebedc" A "abbacceacdeaaeabececcccdeadeebbba")  (str.++  "abdaaedebedc" A "abbacceacdeaaeabececcccdeadeebbba") ))
(assert (= (str.++  "eecadae" A "cacbeaaaabcbaadcccaaecebdbebacceeadecb")  (str.++  "eecadae" A "cacbeaaaabcbaadcccaaecebdbebacceeadecb") ))
(assert (= (str.++  "eaaecdecebceaaabbe" A "bbebddeebebdceadabdedbabaab")  (str.++  "eaaecdecebceaaabbe" A "bbebddeebebdceadabdedbabaab") ))
(assert (= (str.++  "acaaeaccdceddcabedacceadbecbdbbbaecdbeabcbddcaaba" "")  (str.++  "acaaeaccdceddcabedacceadbec" A "baecdbeabcbddcaaba") ))
(assert (= (str.++  "bcbceabdcbcdaadddcebdacaeddddbeaaabdbbbdcdaccacba" "")  (str.++  "bcbceabdcbcdaadddcebdacaeddddbeaaa" A "bdcdaccacba") ))
(assert (= (str.++  "ebaadbebeaa" A "dccdcacbbdeaadeaadddbccbecdaecbeae")  (str.++  "ebaadbebeaa" A "dccdcacbbdeaadeaadddbccbecdaecbeae") ))
(assert (= (str.++  "cccccccddae" A "dbacacebbdaaeaeadcdacdaedcaedbbbea")  (str.++  "cccccccddaebdbbdbacacebbdaaeaeadcdacdaedcaedbbbea" "") ))
(assert (= (str.++  "bbbaba" A "abbaceecaeccecbcecbaddddcececbbceeddabd")  (str.++  "bbbababdbbabbaceecaeccecbcecbaddddcececbbceeddabd" "") ))
(assert (= (str.++  "dcaeedebcbcabbabdbbbdeebeabcadebddedbebdbceddbcac" "")  (str.++  "dcaeedebcbcabba" A "bdeebeabcadebddedbebdbceddbcac") ))
(assert (= (str.++  "cecccbd" A "cecedeeaeaaedecaeaadbabcbecedeabbbaabb")  (str.++  "cecccbd" A "cecedeeaeaaedecaeaadbabcbecedeabbbaabb") ))
(assert (= (str.++  "becdebeaeabdabbbcaaaadaadbbdbbcabbeebcaccecadbbec" "")  (str.++  "becdebeaeabdabbbcaaaadaadb" A "cabbeebcaccecadbbec") ))
(assert (= (str.++  "beeebbeebdbbbaaebacdaebbbcbababcdebdeddaabdabcade" "")  (str.++  "beeebbee" A "baaebacdaebbbcbababcdebdeddaabdabcade") ))
(assert (= (str.++  "beabcaddedddbeabdcbddddacabddcacbdeabe" A "badbace")  (str.++  "beabcaddedddbeabdcbddddacabddcacbdeabe" A "badbace") ))
(assert (= (str.++  "bbcadeecebbeacbcdbbbbacecdadbadecae" A "bbaddceaac")  (str.++  "bbcadeecebbeacbcdbbbbacecdadbadecaebdbbbbaddceaac" "") ))
(assert (= (str.++  "cdcdbdeacaabcabdadecebac" A "eaceecbbdaecbcddcecca")  (str.++  "cdcdbdeacaabcabdadecebacbdbbeaceecbbdaecbcddcecca" "") ))
(check-sat)
(get-model)
